Cars = 1..200;
Options = 1..5;
Classes = 1..26;
sequenceMinCapacity = [0, 0, 0, 0, 0];
sequenceMaxCapacity = [1, 2, 1, 2, 1];
sequenceSize = [2, 3, 3, 5, 5];
numOrdered = [5, 2, 1, 3, 3, 15, 11, 6, 3, 4, 5, 7, 5, 23, 4, 36, 1, 10, 1, 7, 21, 3, 4, 14, 5, 1];
classHasOption = [|false,  true,  true,  true, false
                  |false, false,  true,  true,  true
                  | true,  true,  true, false,  true
                  | true, false,  true, false,  true
                  | true,  true, false,  true, false
                  |false,  true, false,  true, false
                  |false,  true,  true, false, false
                  | true, false, false, false,  true
                  |false,  true, false,  true,  true
                  |false,  true,  true, false,  true
                  | true,  true,  true, false, false
                  | true, false, false,  true, false
                  |false,  true, false, false,  true
                  |false, false, false,  true, false
                  | true, false,  true,  true, false
                  |false,  true, false, false, false
                  |false, false, false,  true,  true
                  |false, false,  true, false, false
                  |false,  true,  true,  true,  true
                  | true, false,  true, false, false
                  | true, false, false, false, false
                  | true,  true,  true,  true, false
                  | true,  true, false, false,  true
                  | true, false, false, false, false
                  |false, false, false, false,  true
                  | true, false, false, false, false|];
optionOrdering = [5, 3, 1, 4, 2];
